c
c start with comments
c
p cnf 26 36
2 -20 11 22 0
-22 5 24 -18 2 0
1 24 26 7 0
13 7 14 -23 -21 0
-6 -13 26 12 0
-13 7 18 12 8 -18 0
25 10 -5 0
12 -2 26 0
8 18 -11 0
5 -2 -11 0
-7 -10 6 -5 -15 0
-19 21 -5 25 0
-22 8 -4 8 0
-26 -15 0
-23 -26 -18 -9 0
26 6 9 18 -24 0
13 6 -26 -7 0
2 -21 -18 5 -12 0
-12 24 10 -19 18 0
22 2 24 0
-22 8 0
23 -11 -18 -17 -9 0
-10 -8 20 0
-7 23 -2 0
15 -21 -23 17 -20 0
12 21 -17 17 3 0
15 -16 -12 14 0
-19 5 16 -21 0
7 11 26 18 -19 16 0
-17 -5 -18 0
-26 13 -10 0
-6 11 12 0
6 -15 -11 -22 -24 0
-8 -22 10 8 -2 0
13 18 1 19 -16 0
26 -20 -25 18 0